Cost: 872
0-47-80-160-149-45-27-38-70-155-154-134-119-93-87-60-43-166-144-91-99-83-113-0
0-37-112-34-117-14-122-85-120-64-100-136-114-66-106-109-98-176-132-40-124-0
0-167-11-48-6-89-95-19-63-151-141-143-146-36-33-97-140-67-62-0
0-30-22-153-116-39-142-35-13-139-133-135-92-179-102-145-12-61-147-44-0
0-46-101-138-174-94-152-118-189-162-172-59-90-115-96-148-16-123-15-3-24-186-157-0
0-41-68-130-49-73-182-111-178-0
